language Essence 1.3

letting bot_end be [76, 243, 93, 167, 172, 37, 169, 137, 248, 116, 36, 244; int(1..12)]
letting bot_start be [184, 55, 10, 0, 30, 121, 175, 109, 89, 245, 219, 244; int(1..12)]
letting bots be 12
letting buffer_col be 2
letting buffer_row be 2
letting corridor_size be 1
letting n_shelves_col be 2
letting n_shelves_row be 11
letting shelf_col_size be 2
letting shelf_row_size be 1
